### SOLID LIQUID COEXISTENCE SIMULATION ###
### FOR MELTING TEMPERATURE ESTIMATION ###

### TAKE FINAL SIMULATION TEMPERATURE ###
#### AS COMMAND LINE INPUT ###

variable temp equal ${temp_input}
timestep 0.005

### SETUP OF SIMULATION CELL ###

units metal
dimension 3
atom_style atomic
boundary p p p

lattice         bcc 3.316 origin 0.1 0.1 0.1 
region          box block 0 5 0 5 0 8

### DEFINE SOLID/LIQUID REGIONS OF CELL ###

region liquid block 0 5 0 5 4 8
region solid block 0 5 0 5 0 4

create_box 1 box

create_atoms    1 box

group solid_atoms region solid
group liquid_atoms region liquid


### DEFINE MASS AND INCLUDE POTENTIAL FILE ###

mass 1 180.88
include Ta_pot.mod


thermo 10
thermo_style custom step temp pe ke etotal vol press
dump mydmp all atom 5 dump.lammpstrj

### BRING THE LIQUID PORTION OF CELL TO ###
### TEMPERATURE ABOVE PERSUMED MELTING POINT ###

velocity liquid_atoms create 10000 654321 mom yes rot no dist gaussian

fix 1 liquid_atoms nvt temp 5000 7000 .01

run 2500

unfix 1


### FIX TO OUTPUT REMAINDER OF SIMULATION DATA ###

fix extra all print 5 """{"timestep": $(step), "temp": $(temp), "ke": $(ke)}""" &
    title "" file output.json screen no


### BRING SOLID AND LIQUID CELL TOGETHER ###
### AND ALLOW TO EVOLVE IN NPT ENSEBLE ###

velocity solid_atoms create 600 654321 mom yes rot no dist gaussian

fix 1 all npt temp ${temp} ${temp} 0.01 iso 1.0 1.0 1000.0

### COMPUTE AND OUTPUT CNA DATA ###

compute structure all cna/atom 4.002
dump 1 all custom 100 cna_output_${temp}.txt id type c_structure


run 5000
